(set-logic QF_S)
(declare-fun var0 () String)
(assert (RegexIn var0 (RegexConcat (RegexStar (RegexPlus (Str2Reg "0"))) (RegexConcat (RegexUnion (RegexPlus (Str2Reg "111")) (RegexPlus (Str2Reg "22"))) (RegexConcat (RegexUnion (RegexUnion (Str2Reg "3") (Str2Reg "44")) (RegexUnion (Str2Reg "55") (Str2Reg "666"))) (RegexConcat (RegexStar (RegexStar (Str2Reg "77"))) (RegexConcat (RegexStar (RegexPlus (Str2Reg "88"))) (RegexConcat (RegexStar (RegexUnion (Str2Reg "99") (Str2Reg "a"))) (RegexConcat (RegexStar (RegexStar (Str2Reg "bbb"))) (RegexConcat (RegexStar (RegexStar (Str2Reg "ccc"))) (RegexConcat (RegexStar (RegexUnion (Str2Reg "ddd") (Str2Reg "ee"))) (RegexStar (RegexStar (Str2Reg "ff"))))))))))))))
(assert (<= 276 (Length var0)))
(check-sat)